p cnf 66 260
c p weight 30 0 0
c p weight -30 1 0
c p weight 31 1.0 0
c p weight -31 1 0
26 -25 23 0
26 -25 24 0
-26 25 23 0
-26 25 24 0
26 25 -23 -24 0
-26 -25 -23 -24 0
27 23 -24 0
27 -23 24 0
-27 23 24 0
-27 -23 -24 0
28 29 -26 0
28 -26 27 0
-28 29 26 0
-28 26 27 0
28 -26 -23 0
-28 26 -23 0
28 -29 26 23 -27 0
-28 -29 -26 23 -27 0
29 -23 27 0
-29 23 27 0
-30 27 0
29 -30 -23 0
-29 -30 23 0
29 30 23 -27 0
-29 30 -23 -27 0
-31 27 0
29 -31 23 0
-29 -31 -23 0
29 31 -23 -27 0
-29 31 23 -27 0
32 -28 29 0
32 -28 27 0
-32 28 29 0
-32 28 27 0
32 28 -29 -27 0
-32 -28 -29 -27 0
33 29 -27 0
33 -29 27 0
-33 29 27 0
-33 -29 -27 0
34 -32 29 0
34 -32 22 0
-34 32 29 0
-34 32 22 0
34 -32 21 -33 0
34 -32 -21 33 0
-34 32 21 -33 0
-34 32 -21 33 0
34 32 -29 21 33 -22 0
34 32 -29 -21 -33 -22 0
-34 -32 -29 21 33 -22 0
-34 -32 -29 -21 -33 -22 0
36 29 -21 0
36 -29 21 0
-36 29 21 0
-36 -29 -21 0
35 33 -22 0
35 -33 22 0
-35 33 22 0
-35 -33 -22 0
37 -34 36 0
37 -34 20 0
-37 34 36 0
-37 34 20 0
37 -34 19 -22 0
37 -34 -19 22 0
-37 34 19 -22 0
-37 34 -19 22 0
37 34 -36 19 22 -20 0
37 34 -36 -19 -22 -20 0
-37 -34 -36 19 22 -20 0
-37 -34 -36 -19 -22 -20 0
39 36 -19 0
39 -36 19 0
-39 36 19 0
-39 -36 -19 0
38 22 -20 0
38 -22 20 0
-38 22 20 0
-38 -22 -20 0
40 -37 39 0
40 -37 18 0
-40 37 39 0
-40 37 18 0
40 -37 17 -20 0
40 -37 -17 20 0
-40 37 17 -20 0
-40 37 -17 20 0
40 37 -39 17 20 -18 0
40 37 -39 -17 -20 -18 0
-40 -37 -39 17 20 -18 0
-40 -37 -39 -17 -20 -18 0
42 39 -17 0
42 -39 17 0
-42 39 17 0
-42 -39 -17 0
41 20 -18 0
41 -20 18 0
-41 20 18 0
-41 -20 -18 0
43 -40 42 0
43 -40 16 0
-43 40 42 0
-43 40 16 0
43 -40 15 -18 0
43 -40 -15 18 0
-43 40 15 -18 0
-43 40 -15 18 0
43 40 -42 15 18 -16 0
43 40 -42 -15 -18 -16 0
-43 -40 -42 15 18 -16 0
-43 -40 -42 -15 -18 -16 0
45 42 -15 0
45 -42 15 0
-45 42 15 0
-45 -42 -15 0
44 18 -16 0
44 -18 16 0
-44 18 16 0
-44 -18 -16 0
46 -43 45 0
46 -43 14 0
-46 43 45 0
-46 43 14 0
46 -43 13 -16 0
46 -43 -13 16 0
-46 43 13 -16 0
-46 43 -13 16 0
46 43 -45 13 16 -14 0
46 43 -45 -13 -16 -14 0
-46 -43 -45 13 16 -14 0
-46 -43 -45 -13 -16 -14 0
48 45 -13 0
48 -45 13 0
-48 45 13 0
-48 -45 -13 0
47 16 -14 0
47 -16 14 0
-47 16 14 0
-47 -16 -14 0
49 -46 48 0
49 -46 12 0
-49 46 48 0
-49 46 12 0
49 -46 11 -14 0
49 -46 -11 14 0
-49 46 11 -14 0
-49 46 -11 14 0
49 46 -48 11 14 -12 0
49 46 -48 -11 -14 -12 0
-49 -46 -48 11 14 -12 0
-49 -46 -48 -11 -14 -12 0
51 48 -11 0
51 -48 11 0
-51 48 11 0
-51 -48 -11 0
50 14 -12 0
50 -14 12 0
-50 14 12 0
-50 -14 -12 0
52 -49 51 0
52 -49 10 0
-52 49 51 0
-52 49 10 0
52 -49 9 -12 0
52 -49 -9 12 0
-52 49 9 -12 0
-52 49 -9 12 0
52 49 -51 9 12 -10 0
52 49 -51 -9 -12 -10 0
-52 -49 -51 9 12 -10 0
-52 -49 -51 -9 -12 -10 0
54 51 -9 0
54 -51 9 0
-54 51 9 0
-54 -51 -9 0
53 12 -10 0
53 -12 10 0
-53 12 10 0
-53 -12 -10 0
55 -52 54 0
55 -52 8 0
-55 52 54 0
-55 52 8 0
55 -52 7 -10 0
55 -52 -7 10 0
-55 52 7 -10 0
-55 52 -7 10 0
55 52 -54 7 10 -8 0
55 52 -54 -7 -10 -8 0
-55 -52 -54 7 10 -8 0
-55 -52 -54 -7 -10 -8 0
57 54 -7 0
57 -54 7 0
-57 54 7 0
-57 -54 -7 0
56 10 -8 0
56 -10 8 0
-56 10 8 0
-56 -10 -8 0
58 -55 57 0
58 -55 6 0
-58 55 57 0
-58 55 6 0
58 -55 5 -8 0
58 -55 -5 8 0
-58 55 5 -8 0
-58 55 -5 8 0
58 55 -57 5 8 -6 0
58 55 -57 -5 -8 -6 0
-58 -55 -57 5 8 -6 0
-58 -55 -57 -5 -8 -6 0
60 57 -5 0
60 -57 5 0
-60 57 5 0
-60 -57 -5 0
59 8 -6 0
59 -8 6 0
-59 8 6 0
-59 -8 -6 0
61 -58 60 0
61 -58 4 0
-61 58 60 0
-61 58 4 0
61 -58 3 -6 0
61 -58 -3 6 0
-61 58 3 -6 0
-61 58 -3 6 0
61 58 -60 3 6 -4 0
61 58 -60 -3 -6 -4 0
-61 -58 -60 3 6 -4 0
-61 -58 -60 -3 -6 -4 0
63 60 -3 0
63 -60 3 0
-63 60 3 0
-63 -60 -3 0
62 6 -4 0
62 -6 4 0
-62 6 4 0
-62 -6 -4 0
64 -61 63 0
64 -61 2 0
-64 61 63 0
-64 61 2 0
64 -61 1 -4 0
64 -61 -1 4 0
-64 61 1 -4 0
-64 61 -1 4 0
64 61 -63 1 4 -2 0
64 61 -63 -1 -4 -2 0
-64 -61 -63 1 4 -2 0
-64 -61 -63 -1 -4 -2 0
66 63 -1 0
66 -63 1 0
-66 63 1 0
-66 -63 -1 0
65 4 -2 0
65 -4 2 0
-65 4 2 0
-65 -4 -2 0
